Problem:    
Rows:       20
Columns:    60 (60 integer, 60 binary)
Non-zeros:  298
Status:     INTEGER OPTIMAL
Objective:  score = 5905 (MAXimum)

   No.   Row name        Activity     Lower bound   Upper bound
------ ------------    ------------- ------------- -------------
     1 index_0                     6             0               
     2 index_1                     1             0               
     3 index_2                     1             0               
     4 index_3                     0             0               
     5 index_4                     0             0               
     6 index_5                     1             0               
     7 index_6                     1             0               
     8 index_7                     0             0               
     9 index_8                     2             0               
    10 index_9                     0             0               
    11 index_10                    0             0               
    12 index_11                    0             0               
    13 index_12                    7             0               
    14 index_13                    1             0               
    15 index_14                    1             0               
    16 index_15                    3             0               
    17 index_16                    2             0               
    18 index_17                    3             0               
    19 index_18                    2             0               
    20 length                    967                        1920 

   No. Column name       Activity     Lower bound   Upper bound
------ ------------    ------------- ------------- -------------
     1 c0           *              1             0             1 
     2 c1           *              1             0             1 
     3 c2           *              1             0             1 
     4 c3           *              1             0             1 
     5 c4           *              1             0             1 
     6 c5           *              1             0             1 
     7 c6           *              1             0             1 
     8 c7           *              1             0             1 
     9 c8           *              1             0             1 
    10 c9           *              1             0             1 
    11 c10          *              1             0             1 
    12 c11          *              1             0             1 
    13 c12          *              1             0             1 
    14 c13          *              1             0             1 
    15 c14          *              1             0             1 
    16 c15          *              1             0             1 
    17 c16          *              1             0             1 
    18 c17          *              1             0             1 
    19 c18          *              1             0             1 
    20 s0           *              1             0             1 
    21 s1           *              0             0             1 
    22 s2           *              0             0             1 
    23 s3           *              0             0             1 
    24 s4           *              1             0             1 
    25 s5           *              0             0             1 
    26 s6           *              1             0             1 
    27 s7           *              0             0             1 
    28 s8           *              1             0             1 
    29 s9           *              0             0             1 
    30 s10          *              0             0             1 
    31 s11          *              1             0             1 
    32 s12          *              0             0             1 
    33 s13          *              0             0             1 
    34 s14          *              0             0             1 
    35 s16          *              0             0             1 
    36 s17          *              0             0             1 
    37 s18          *              0             0             1 
    38 s19          *              1             0             1 
    39 s20          *              0             0             1 
    40 s21          *              0             0             1 
    41 s22          *              0             0             1 
    42 s23          *              0             0             1 
    43 s24          *              0             0             1 
    44 s25          *              0             0             1 
    45 s26          *              0             0             1 
    46 s27          *              1             0             1 
    47 s28          *              0             0             1 
    48 s29          *              0             0             1 
    49 s30          *              0             0             1 
    50 s31          *              0             0             1 
    51 s32          *              0             0             1 
    52 s33          *              0             0             1 
    53 s34          *              0             0             1 
    54 s35          *              0             0             1 
    55 s36          *              0             0             1 
    56 s37          *              0             0             1 
    57 s38          *              0             0             1 
    58 s39          *              0             0             1 
    59 s40          *              0             0             1 
    60 s15          *              1             0             1 

Integer feasibility conditions:

KKT.PE: max.abs.err = 0.00e+00 on row 0
        max.rel.err = 0.00e+00 on row 0
        High quality

KKT.PB: max.abs.err = 0.00e+00 on row 0
        max.rel.err = 0.00e+00 on row 0
        High quality

End of output
